p edge 97 257
e 1 4
e 1 7
e 1 8
e 1 10
e 1 13
e 1 16
e 1 24
e 1 26
e 1 29
e 1 50
e 2 3
e 2 4
e 2 14
e 2 17
e 2 21
e 2 39
e 2 41
e 2 44
e 2 48
e 2 54
e 2 64
e 2 79
e 3 4
e 3 9
e 3 13
e 3 14
e 3 20
e 3 30
e 3 40
e 3 53
e 3 60
e 3 70
e 4 8
e 4 13
e 4 17
e 4 27
e 4 39
e 4 40
e 4 50
e 4 63
e 4 65
e 5 7
e 5 11
e 5 12
e 5 19
e 5 21
e 5 29
e 5 32
e 5 36
e 5 37
e 5 43
e 5 71
e 5 84
e 6 7
e 6 10
e 6 11
e 6 18
e 6 24
e 6 28
e 6 49
e 7 8
e 7 10
e 7 13
e 7 24
e 7 26
e 7 27
e 7 29
e 7 44
e 7 49
e 8 10
e 8 24
e 8 26
e 8 43
e 8 45
e 8 47
e 8 49
e 8 50
e 8 52
e 8 53
e 8 58
e 8 69
e 8 77
e 9 14
e 9 21
e 9 22
e 9 61
e 9 62
e 9 64
e 9 68
e 10 13
e 10 16
e 10 18
e 10 24
e 10 26
e 10 37
e 10 51
e 10 66
e 10 77
e 11 15
e 11 32
e 11 37
e 12 24
e 12 26
e 12 36
e 12 38
e 12 72
e 12 95
e 13 16
e 13 19
e 13 27
e 13 44
e 13 74
e 14 20
e 14 21
e 14 30
e 14 40
e 14 60
e 14 61
e 14 68
e 14 85
e 15 21
e 15 30
e 15 32
e 15 37
e 15 88
e 16 26
e 16 37
e 16 51
e 17 23
e 17 33
e 17 42
e 18 24
e 18 34
e 18 78
e 19 32
e 19 72
e 19 74
e 20 23
e 20 40
e 20 90
e 20 92
e 21 30
e 21 32
e 21 60
e 21 61
e 21 68
e 22 32
e 22 41
e 22 44
e 22 79
e 23 36
e 23 54
e 24 26
e 25 46
e 27 35
e 27 39
e 27 44
e 27 50
e 27 65
e 27 66
e 27 76
e 28 34
e 28 35
e 28 57
e 28 65
e 28 67
e 29 59
e 29 63
e 29 71
e 29 84
e 30 46
e 30 53
e 30 60
e 30 64
e 30 70
e 30 88
e 31 33
e 31 62
e 32 37
e 32 79
e 33 42
e 34 38
e 34 55
e 34 78
e 35 43
e 35 57
e 35 66
e 35 67
e 35 76
e 36 54
e 37 51
e 38 55
e 38 75
e 38 89
e 38 95
e 39 41
e 39 50
e 39 53
e 39 61
e 39 64
e 39 65
e 39 81
e 39 82
e 40 54
e 40 90
e 41 46
e 41 64
e 43 45
e 43 47
e 43 52
e 43 71
e 45 47
e 45 52
e 45 67
e 45 94
e 46 64
e 46 81
e 47 52
e 48 79
e 48 93
e 49 52
e 50 65
e 53 58
e 53 60
e 53 61
e 53 70
e 55 89
e 56 58
e 56 62
e 56 81
e 56 82
e 57 65
e 57 67
e 57 96
e 57 97
e 58 62
e 59 63
e 59 73
e 60 70
e 61 68
e 61 76
e 66 76
e 66 77
e 67 94
e 68 70
e 68 91
e 69 77
e 70 91
e 71 73
e 71 84
e 73 83
e 73 84
e 80 86
e 80 87
e 81 82
e 86 87
e 96 97
